letting n =  10
letting blocks =  [[1, 1], [1, 6], [1, 8], [2, 1], [2, 2], [2, 3], [2, 5], [2, 10], [3, 1], [3, 2], [3, 6], [3, 7], [3, 8], [3, 10], [4, 4], [4, 6], [5, 1], [5, 4], [5, 7], [5, 8], [6, 3], [6, 6], [6, 8], [6, 9], [7, 2], [7, 3], [7, 7], [7, 10], [8, 3], [8, 5], [9, 1], [9, 3], [9, 4], [9, 8], [9, 9], [10, 1], [10, 2], [10, 3], [10, 4], [10, 10]]
